qe/outputs/qe/qe_queries_wdomain/T=5,eliminate=[I_0,I_1,I_2,I_3,I_4,L_1,L_2,L_3,L_4,C,B,S_4].smt2
; benchmark generated from python API
(set-info :status unknown)
(declare-fun S_1 () Real)
(declare-fun S_2 () Real)
(declare-fun L_0 () Real)
(declare-fun A_1 () Real)
(declare-fun A_3 () Real)
(declare-fun S_3 () Real)
(declare-fun S_0 () Real)
(declare-fun A_0 () Real)
(declare-fun A_2 () Real)
(declare-fun A_4 () Real)
(declare-fun loss_rate_tol () Real)
(assert
 (let (($x99807 (<= 0.0 (+ (* (/ 1.0 4.0) A_3) (* (- 1.0) A_1) S_2 L_0 (* (- (/ 1.0 4.0)) A_4)))))
 (let (($x105304 (not $x99807)))
 (let ((?x1516 (* 2.0 L_0)))
 (let ((?x918 (* (- 1.0) A_4)))
 (let ((?x1517 (* 2.0 S_2)))
 (let ((?x3003 (* (- 2.0) A_1)))
 (let ((?x1507 (* (- 1.0) S_1)))
 (let ((?x869 (* (- 1.0) A_1)))
 (let (($x96977 (not (<= 0.0 (+ A_3 ?x869 S_2 ?x1507 ?x918 A_0 loss_rate_tol)))))
 (let (($x96191 (not (<= 0.0 loss_rate_tol))))
 (let (($x639 (not (<= 0.0 (+ (* (- (/ 5.0 6.0)) A_1) S_2 L_0 (* (- (/ 1.0 6.0)) A_4))))))
 (let (($x219016 (or $x639 $x96191 $x96977 (not (<= 0.0 (+ ?x3003 ?x1517 ?x918 ?x1516 A_2 loss_rate_tol))) $x105304)))
 (let (($x103034 (<= 0.0 (+ (* (/ 1.0 2.0) A_3) S_2 L_0 (* (- 1.0) A_0) (* (- (/ 1.0 2.0)) A_4)))))
 (let (($x103035 (not $x103034)))
 (let (($x101591 (<= 0.0 (+ (* (- 1.0) A_0) L_0 S_2 ?x918 A_2 loss_rate_tol))))
 (let (($x101601 (not $x101591)))
 (let (($x649 (<= 0.0 (+ (* (- (/ 5.0 2.0)) A_0) (* (/ 7.0 2.0) L_0) (* (/ 7.0 2.0) S_2) ?x918))))
 (let (($x647 (not $x649)))
 (let ((?x12331 (* 2.0 loss_rate_tol)))
 (let ((?x4376 (* (- 2.0) A_4)))
 (let ((?x3104 (* (- 2.0) S_1)))
 (let ((?x1787 (* 2.0 S_3)))
 (let (($x101141 (not (<= 0.0 (+ A_0 ?x1787 L_0 S_2 ?x3104 ?x4376 ?x12331)))))
 (let (($x227322 (or (<= (+ (* (- (/ 1.0 3.0)) A_0) L_0 S_2 (* (- (/ 2.0 3.0)) A_3)) 0.0) $x96191 $x101141 $x103035)))
 (let ((?x1511 (* (/ 1.0 2.0) L_0)))
 (let ((?x5679 (* (/ 3.0 2.0) S_3)))
 (let ((?x2787 (* (- (/ 1.0 2.0)) A_1)))
 (let (($x14755 (<= (+ (* 2.0 A_1) A_4 (* (- 3.0) S_3) (* (- 3.0) L_0)) 0.0)))
 (let (($x19645 (not $x14755)))
 (let (($x223778 (or $x19645 $x96191 (not (<= 0.0 (+ ?x2787 ?x5679 ?x1507 ?x918 ?x1511 A_0 loss_rate_tol))))))
 (let ((?x1586 (* (- 1.0) S_2)))
 (let ((?x37398 (+ (* (- (/ 3.0 4.0)) A_2) (* (/ 3.0 4.0) S_3) A_1 ?x1586 (* (/ 1.0 4.0) S_0) (* (- (/ 1.0 4.0)) A_0))))
 (let (($x105569 (not (<= 0.0 ?x37398))))
 (let (($x105530 (<= 0.0 (+ (* (- 1.0) A_2) ?x1787 A_1 ?x1586 ?x1507 ?x918 A_0 loss_rate_tol))))
 (let (($x105531 (not $x105530)))
 (let (($x18402 (<= (+ (* (- 1.0) A_2) S_3 A_0 ?x1586) 0.0)))
 (let (($x3020 (<= (+ A_1 ?x1586 (* (- 1.0) L_0)) 0.0)))
 (let (($x99969 (not (<= 0.0 (+ (* (- (/ 4.0 5.0)) A_2) S_3 A_1 ?x1586 (* (- (/ 1.0 5.0)) A_4))))))
 (let (($x99530 (not (<= (+ (* (- 1.0) A_3) A_4) 20.0))))
 (let (($x94506 (not (<= (- 5.0) (+ ?x918 A_3 loss_rate_tol)))))
 (let (($x88898 (<= (+ (* (/ 1.0 2.0) A_0) (* (- (/ 1.0 2.0)) L_0) (* (- (/ 1.0 2.0)) S_3)) (- 5.0))))
 (let (($x671 (not (<= (- 5.0) (+ (* (/ 1.0 6.0) A_1) (* (- (/ 1.0 6.0)) A_4))))))
 (let ((?x878 (* (- 1.0) A_2)))
 (let ((?x1149 (+ A_1 ?x878)))
 (let (($x1956 (<= ?x1149 (- 5.0))))
 (let (($x661 (not $x1956)))
 (let (($x103908 (not (<= (- 10.0) (+ S_2 ?x1507 ?x918 A_0 loss_rate_tol)))))
 (let ((?x14825 (* (- (/ 1.0 3.0)) A_0)))
 (let (($x102881 (<= (- 5.0) (+ (* (/ 1.0 3.0) A_2) (* (- (/ 1.0 3.0)) S_3) (* (/ 1.0 3.0) S_0) ?x14825))))
 (let (($x102882 (not $x102881)))
 (let (($x98798 (not (<= (- 20.0) (+ A_1 (* (- 1.0) S_3) S_0 (* (- 1.0) A_0))))))
 (let (($x4060 (<= (+ A_2 (* (- 1.0) S_3) (* (- 1.0) L_0)) 0.0)))
 (let (($x3079 (<= (+ A_1 (* (- 1.0) S_3) (* (- 1.0) L_0)) (- 5.0))))
 (let (($x100154 (not (<= (+ ?x878 A_4) 25.0))))
 (let (($x97949 (not (<= (- 5.0) (+ (* (/ 1.0 7.0) A_0) (* (- (/ 1.0 7.0)) A_4))))))
 (let (($x103581 (not (<= 0.0 (+ ?x878 S_3 A_1 ?x1586 ?x918 A_3 loss_rate_tol)))))
 (let ((?x21381 (* (- (/ 1.0 5.0)) A_4)))
 (let ((?x22276 (* (- (/ 4.0 5.0)) A_2)))
 (let ((?x49171 (+ ?x22276 (* (/ 4.0 5.0) S_3) A_1 ?x1586 (* (/ 1.0 5.0) S_0) (* (- (/ 1.0 5.0)) A_0) (* (/ 1.0 5.0) A_3) ?x21381)))
 (let (($x103442 (not (<= 0.0 ?x49171))))
 (let ((?x886 (* (- 1.0) A_3)))
 (let ((?x1523 (* (/ 3.0 2.0) S_2)))
 (let ((?x1522 (* (/ 3.0 2.0) L_0)))
 (let ((?x1510 (* (- (/ 1.0 2.0)) A_0)))
 (let (($x99105 (not (<= 0.0 (+ ?x2787 (* (/ 1.0 2.0) S_3) ?x918 ?x1511 A_3 loss_rate_tol)))))
 (let (($x97858 (not (<= 0.0 (+ S_3 ?x1586 ?x918 A_2 loss_rate_tol)))))
 (let (($x2386 (<= (+ A_0 ?x1586 (* (- 1.0) L_0)) (- 5.0))))
 (let ((?x1146 (+ A_2 ?x886)))
 (let (($x2174 (<= ?x1146 (- 5.0))))
 (let (($x103560 (not (<= (- 10.0) (+ ?x918 A_2 loss_rate_tol)))))
 (let ((?x2801 (* (/ 1.0 2.0) A_2)))
 (let ((?x1499 (* (/ 1.0 2.0) A_0)))
 (let ((?x2803 (* (- (/ 1.0 2.0)) S_1)))
 (let ((?x5574 (* (/ 1.0 2.0) S_3)))
 (let ((?x2757 (* (/ 1.0 2.0) A_3)))
 (let (($x102874 (not (<= (- (/ 5.0 2.0)) (+ ?x2757 ?x2787 ?x5574 ?x2803 ?x918 ?x1499 ?x2801 loss_rate_tol)))))
 (let (($x104127 (not (<= (- 15.0) (+ A_1 ?x1586 S_0 (* (- 1.0) A_0))))))
 (let (($x98506 (not (<= (- 5.0) (+ S_3 ?x1507 ?x918 A_0 loss_rate_tol)))))
 (let ((?x2507 (* (- (/ 1.0 3.0)) A_1)))
 (let ((?x59077 (+ (* (/ 1.0 3.0) A_3) ?x2507 (* (/ 2.0 3.0) S_3) (* (- (/ 1.0 3.0)) S_1) ?x918 (* (/ 1.0 3.0) L_0) (* (/ 2.0 3.0) A_2) loss_rate_tol)))
 (let (($x105339 (not (<= 0.0 ?x59077))))
 (let ((?x11630 (* (- 3.0) loss_rate_tol)))
 (let ((?x2124 (* (- 3.0) A_2)))
 (let ((?x12623 (* 3.0 A_4)))
 (let ((?x1594 (* (- 2.0) L_0)))
 (let ((?x3061 (* (- 2.0) S_3)))
 (let ((?x2294 (* 2.0 A_0)))
 (let (($x25109 (not (<= (+ ?x2294 ?x3061 ?x1594 ?x12623 ?x2124 ?x11630) 0.0))))
 (let (($x103039 (not (<= 0.0 (+ ?x5679 (* (- (/ 1.0 2.0)) S_2) ?x1507 ?x918 A_0 loss_rate_tol)))))
 (let (($x98062 (not (<= 0.0 (+ A_1 (* 3.0 S_3) (* (- 3.0) S_2) ?x918)))))
 (let (($x2302 (<= (+ S_3 ?x2294 (* (- 3.0) S_2) ?x1594) 0.0)))
 (let (($x99677 (not (<= 0.0 (+ A_1 ?x5679 (* (- (/ 5.0 2.0)) S_2) S_0 (* (- 1.0) A_0))))))
 (let (($x97357 (not (<= 0.0 (+ ?x869 S_3 ?x918 L_0 A_2 loss_rate_tol)))))
 (let (($x106825 (<= (- 5.0) (+ (* (- 1.0) A_0) S_2 L_0 ?x918 A_1 loss_rate_tol))))
 (let (($x106826 (not $x106825)))
 (let (($x104188 (<= (+ ?x878 (* (- 1.0) A_0) S_2 L_0 A_1) 5.0)))
 (let (($x97072 (<= (+ (* (- 1.0) A_0) S_2 L_0 ?x918 A_1) (- 5.0))))
 (let (($x98621 (not $x97072)))
 (let ((?x947 (* (- 1.0) A_0)))
 (let (($x98348 (<= 0.0 (+ A_3 ?x878 ?x947 S_2 L_0 ?x918 A_1 loss_rate_tol))))
 (let (($x98349 (not $x98348)))
 (let (($x100326 (not (<= 0.0 (+ ?x1787 L_0 ?x1507 ?x4376 A_2 ?x12331)))))
 (let (($x97836 (not (<= 0.0 (+ (* (- (/ 4.0 7.0)) A_0) L_0 S_3 (* (- (/ 3.0 7.0)) A_4))))))
 (let (($x95835 (not (<= 0.0 (+ S_3 ?x947 L_0 ?x918 A_1 loss_rate_tol)))))
 (let (($x102244 (<= 0.0 (+ (* (- 2.0) A_0) S_2 ?x1516 S_1 ?x918 A_1 loss_rate_tol))))
 (let (($x102245 (not $x102244)))
 (let (($x100746 (not (<= 0.0 (+ (* (/ 1.0 5.0) A_2) ?x947 L_0 S_1 ?x21381)))))
 (let (($x92402 (<= 0.0 (+ (* (- 6.0) A_0) (* 7.0 L_0) (* 7.0 S_1) ?x918))))
 (let (($x95501 (not $x92402)))
 (let (($x35946 (<= (+ (* 4.0 A_0) (* (- 4.0) L_0) (* (- 4.0) S_1) ?x886 A_4) 0.0)))
 (let (($x34437 (not $x35946)))
 (let (($x27763 (<= (+ (* (/ 1.0 2.0) A_1) (* (- (/ 1.0 2.0)) A_3)) (- 5.0))))
 (let (($x100521 (not (<= (- 25.0) (+ A_1 ?x1586 S_0 ?x947 A_2 ?x918)))))
 (let (($x104629 (not (<= 0.0 (+ A_3 ?x878 S_3 ?x1507 ?x918 A_0 loss_rate_tol)))))
 (let (($x2249 (not (<= (+ A_3 (* (- 1.0) S_3) S_2 ?x869) 0.0))))
 (let (($x15633 (<= (+ (* (/ 2.0 3.0) A_0) (* (- (/ 2.0 3.0)) L_0) (* (/ 1.0 3.0) S_3) ?x1586) 0.0)))
 (let ((?x21466 (+ (* (/ 2.0 7.0) A_1) (* (/ 5.0 7.0) S_3) ?x1586 (* (/ 2.0 7.0) S_0) (* (- (/ 2.0 7.0)) A_0) (* (/ 2.0 7.0) A_2) (* (- (/ 2.0 7.0)) A_4))))
 (let (($x96974 (not (<= (- 5.0) (+ A_3 ?x878 S_2 ?x1507 ?x918 A_0 loss_rate_tol)))))
 (let (($x221489 (or $x1956 $x4060 $x88898 $x94506 $x96191 (not (<= (- 20.0) (+ A_2 (* (- 1.0) S_3) S_0 ?x947 A_3 ?x918))))))
 (let (($x219147 (or $x661 $x3079 $x88898 $x94506 $x96191 (not (<= (- 25.0) (+ A_1 (* (- 1.0) S_3) S_0 ?x947 A_3 ?x918))))))
 (let (($x97867 (not (<= 0.0 (+ A_3 S_3 ?x4376 L_0 ?x947 A_2 ?x12331)))))
 (let ((?x1004 (* (- 1.0) S_3)))
 (let ((?x35819 (+ A_2 ?x1004 (* (- 4.0) A_0) (* 3.0 L_0) (* 3.0 S_1) S_0)))
 (let (($x99841 (not (<= 0.0 ?x35819))))
 (let (($x5675 (<= (+ ?x1510 ?x1511 (* (- (/ 1.0 2.0)) S_3) S_1) 0.0)))
 (let (($x108504 (not (<= 0.0 (+ ?x1517 L_0 ?x1507 ?x918 loss_rate_tol)))))
 (let (($x99752 (not (<= 0.0 (+ ?x5574 (* (- (/ 1.0 2.0)) S_2) ?x918 A_3 loss_rate_tol)))))
 (let (($x106073 (or $x4060 (not (<= (+ A_3 ?x878 A_0 (* (- 1.0) L_0) ?x1507) 0.0)) $x5675 $x96191 $x98349 $x99841)))
 (let (($x98307 (not (<= 0.0 (+ A_3 ?x947 L_0 S_1 ?x918 loss_rate_tol)))))
 (let ((?x12327 (* 3.0 loss_rate_tol)))
 (let ((?x2970 (* (- 3.0) A_4)))
 (let ((?x3149 (* (- 3.0) S_1)))
 (let ((?x8565 (* 4.0 S_3)))
 (let ((?x4383 (* 3.0 S_2)))
 (let ((?x2120 (* (- 2.0) A_2)))
 (let ((?x2116 (* 2.0 A_3)))
 (let (($x111571 (or $x647 $x96191 (not (<= 0.0 (+ ?x2116 ?x2120 ?x4383 ?x3104 ?x4376 L_0 A_0 ?x12331))) $x103035 $x108504)))
 (let (($x99831 (not (<= (- 30.0) (+ A_1 ?x1004 S_0 ?x947 A_2 ?x918)))))
 (let (($x765 (<= (+ ?x918 A_2) (- 10.0))))
 (let (($x228830 (or $x765 (<= (+ (* 2.0 A_1) ?x1004 (* (- 1.0) L_0) ?x947) 0.0) $x88898 $x96191 $x99831 $x102874)))
 (let (($x224997 (or $x639 $x96191 (not (<= 0.0 (+ A_3 ?x869 S_2 ?x918 L_0 loss_rate_tol))) $x105304)))
 (let (($x224288 (or $x639 $x96191 $x96977 (not (<= 0.0 (+ ?x3003 ?x4383 ?x1507 ?x918 ?x1516 A_0 loss_rate_tol))) $x105304)))
 (let (($x106018 (not (<= 0.0 (+ (* (- (/ 3.0 2.0)) A_0) ?x1523 ?x1522 ?x918 A_1 loss_rate_tol)))))
 (let (($x97243 (<= 0.0 (+ (* (- 4.0) A_2) (* 5.0 S_3) (* 5.0 L_0) ?x918))))
 (let (($x97244 (not $x97243)))
 (let (($x226910 (or $x96191 $x97244 (not (<= 0.0 (+ ?x878 S_3 L_0 ?x918 A_3 loss_rate_tol))))))
 (let ((?x14836 (* (- (/ 1.0 3.0)) A_3)))
 (let ((?x14853 (* (/ 1.0 3.0) A_0)))
 (let ((?x15724 (* (- (/ 1.0 3.0)) S_0)))
 (let ((?x14851 (* (- (/ 2.0 3.0)) S_3)))
 (let ((?x2497 (* (/ 1.0 3.0) A_4)))
 (let (($x221550 (or $x2302 $x3020 (not (<= (+ ?x2507 ?x2497 ?x14851 S_2 ?x15724 ?x14853 ?x14836) 0.0)) $x96191 $x99752)))
 (let (($x108436 (or (<= (+ ?x918 A_3) (- 5.0)) $x2386 $x3020 $x96191 (not (<= (- 20.0) (+ A_1 ?x1586 S_0 ?x947 A_3 ?x918))))))
 (let (($x102820 (or $x647 $x96191 (not (<= 0.0 (+ ?x2116 S_2 ?x4376 L_0 ?x947 ?x12331))) $x103035)))
 (let (($x113112 (or $x96191 $x97836 (not (<= 0.0 (+ (* 3.0 A_3) S_3 ?x2970 L_0 ?x947 ?x12327))))))
 (let (($x122129 (or $x96191 $x97244 (not (<= 0.0 (+ ?x878 ?x1787 A_0 L_0 ?x1507 ?x918 loss_rate_tol))))))
 (let ((?x35921 (+ A_2 ?x1004 (* (- 5.0) A_0) (* 4.0 L_0) (* 4.0 S_1) S_0 A_3 ?x918)))
 (let (($x96916 (not (<= 0.0 (+ A_2 ?x1004 ?x947 S_0)))))
 (let (($x96374 (not (<= (- 5.0) (+ A_2 ?x1004 A_0 (* (- 1.0) L_0) ?x869)))))
 (let ((?x4636 (+ A_2 ?x1004 ?x947 S_0)))
 (let (($x4606 (<= ?x4636 0.0)))
 (let (($x122619 (or $x3079 $x4606 $x88898 $x96374 (not (<= (- 5.0) (+ A_1 ?x1004 S_0 ?x947))))))
 (let (($x2944 (<= (+ ?x1004 (* 2.0 S_1) L_0 ?x947) 0.0)))
 (let ((?x4139 (+ A_2 ?x1004 S_1 ?x869)))
 (let (($x4094 (<= ?x4139 0.0)))
 (let (($x41 (>= A_1 A_0)))
 (let (($x42 (>= A_2 A_1)))
 (let (($x43 (>= A_3 A_2)))
 (let (($x44 (>= A_4 A_3)))
 (and $x44 $x43 $x42 $x41 (or $x2944 $x4094) (or (<= (+ S_3 A_1 ?x1586 ?x886) 0.0) $x2302) (or (<= (+ S_3 A_1 ?x1586 ?x886) 0.0) $x2386) (or $x4094 (<= (+ ?x1004 S_1) (- 5.0))) (or $x2386 $x3020 (not (<= 0.0 (+ A_1 ?x1586 S_0 ?x947)))) (or $x2944 $x4606 (not (<= 0.0 ?x4139))) (or $x2302 $x3020 (not (<= 0.0 (+ A_1 ?x1586 S_0 ?x947)))) (or (<= (+ S_3 A_1 ?x1586 ?x886) 0.0) $x18402) (or $x2944 $x4060 (not (<= (+ A_1 ?x1507 S_0 ?x947) 0.0)) $x96916) $x122619 (or $x4060 $x88898 (not (<= (+ A_2 ?x869) 5.0)) $x96374 $x96916) (or $x3020 $x18402 (not (<= 0.0 (+ A_1 ?x1586 S_0 ?x947)))) (or $x1956 $x2174 $x88898 $x95835 $x96191 $x99530) (or $x1956 $x2174 $x88898 $x96191 $x98506 $x99530) (or $x34437 $x95501 $x96191 $x98307 $x100746) (or $x5675 $x34437 $x95835 $x96191 $x100746) (or $x4060 $x5675 $x96191 $x98307 (not (<= 0.0 ?x35921))) (or $x34437 $x95501 $x96191 $x97357 $x100746) (or $x647 $x96191 $x97867 $x103035) (or $x4060 $x5675 $x96191 $x98307 $x99841) $x122129 (or $x96191 $x97357 $x97836) (or $x639 $x96191 $x97357 $x105304) $x113112 (or $x2386 $x3020 $x96191 $x97858 $x104127) (or $x2386 $x96191 $x99969 $x103581) (or $x1956 $x2386 $x94506 $x96191 $x99530 $x100154) (or $x661 $x671 $x2386 $x94506 $x96191 $x99530) (or $x2302 $x3020 $x96191 $x99677 $x99752) (or (<= (+ S_3 A_1 ?x1586 ?x886) 0.0) $x4060 $x88898 $x95835 $x96191 $x102882) (or $x3079 $x4060 $x88898 $x96191 $x96977 $x98798 $x102882 $x103560) (or $x1956 $x94506 $x96191 $x97949 $x99530 $x100154) $x102820 $x108436 $x221550 (or $x19645 $x96191 $x97357) $x226910 (or $x95835 $x96191 $x97244) (or $x647 $x96191 $x98349 $x102245 $x103035) (or $x647 $x96191 $x98349 $x103035 $x106018) (or $x96191 $x97949 $x98349 $x99530 $x100154 $x104188 $x106826) (or $x3079 $x4606 $x88898 $x94506 $x96191 $x99831) (or $x1956 $x96191 $x97949 $x98506 $x99530 $x100154) (or $x3079 $x4060 $x88898 $x96191 $x98506 $x98798 $x102882) $x224288 $x224997 (or $x34437 $x95501 $x95835 $x96191 $x100746) $x228830 (or $x765 $x3079 (not (<= (- 5.0) (+ A_0 ?x869))) $x96191 $x99831 $x102874) (or $x765 $x3079 $x88898 $x96191 $x96977 $x99831) $x111571 (or $x96191 $x97836 (not (<= 0.0 (+ ?x8565 ?x3149 ?x2970 L_0 ?x2294 ?x12327)))) (or $x5675 $x34437 $x96191 $x98307 $x100746) (or $x5675 $x34437 $x96191 $x98349 $x100746 $x102245) (or $x2174 $x27763 $x96191 $x97949 $x99530 $x100326) (or $x3020 $x15633 $x96191 $x103581 $x105569) (or $x4060 $x5675 $x95835 $x96191 $x99841) $x106073 (or $x2386 $x3020 $x96191 $x103581 $x105569) (or $x1956 $x96191 $x96974 $x97949 $x99530 $x100154 $x103908) (or $x1956 $x2174 $x88898 $x96191 $x98349 $x99530) (or $x1956 $x4060 $x88898 $x94506 $x96191 $x102882) (or $x27763 $x95835 $x96191 $x97949 $x99530 $x100154) (or $x2386 $x3020 $x96191 $x105531 $x105569) (or $x96191 $x97836 $x97858) (or $x34437 $x95501 $x96191 $x97858 $x100746) (or $x15633 $x96191 $x98062 $x99752) (or $x3079 $x4060 $x88898 $x95835 $x96191 $x98798 $x102882) (or $x3079 $x4060 $x88898 $x94506 $x96191 $x98798 $x102882) (or $x2386 $x3020 $x96191 $x96974 $x103908 $x104127) (or $x2386 $x3020 $x94506 $x96191 $x104127) (or $x34437 $x95501 $x96191 $x97867 $x100746) (or $x671 $x96191 $x97357 $x97949 $x99530 $x100154) (or $x96191 $x97836 $x97867) (or $x647 $x96191 $x96977 $x103035 $x108504) (or $x647 $x96191 $x101601 $x103035 $x105339) (or $x2302 $x3020 $x96191 $x103442 $x103581) (or $x2302 $x3020 $x96191 $x97858 $x99677) (or $x2174 $x4060 $x88898 $x96191 $x98349 $x102882 $x104188) (or $x95835 $x96191 $x97836) (or $x4060 $x5675 $x96191 $x98349 $x99841 $x102245) (or $x3020 $x18402 $x96191 $x103581 $x105569) (or $x2386 $x3020 $x96191 $x97858 $x100521) (or $x671 $x94506 $x96191 $x97949 $x99530 $x100154) (or $x671 $x2174 $x96191 $x96977 $x97949 $x99530 $x103560) (or $x2386 $x3020 $x96191 $x102874 $x103560 $x104127) (or $x2386 $x96191 $x99969 $x105531) (or $x2302 $x96191 $x97858 $x98062) (or $x671 $x2174 $x96191 $x97867 $x97949 $x99530) $x219147 $x221489 (or $x1956 $x88898 $x96191 $x96974 $x99530 $x100154 $x103908) (or $x1956 $x4060 $x88898 $x96191 $x96974 $x102882 $x103908) (or $x2302 $x96191 $x99969 $x103581) (or $x2174 $x2386 $x27763 $x96191 $x98506 $x99530) (or $x2386 $x3020 $x96191 $x103442 $x103581) (or $x2249 $x18402 $x96191 $x99969 $x104629) (or $x2302 $x3020 $x96191 $x97858 (not (<= 0.0 ?x21466))) (or $x765 $x2386 $x3020 $x96191 $x100521 $x102874) (or $x671 $x96191 $x97949 $x99530 $x100154 $x102874 $x103560) (or $x25109 $x96191 $x97836 $x105339) (or $x1956 $x2386 $x96191 $x98506 $x99530 $x100154) (or $x3020 $x15633 $x96191 $x105531 $x105569) (or $x2249 $x2302 $x96191 $x99969 $x104629) (or $x2386 $x3020 $x94506 $x96191 $x100521) (or $x671 $x2174 $x88898 $x96191 $x99530 $x102874 $x103560) (or $x2174 $x27763 $x88898 $x96191 $x98506 $x99530) (or $x3079 $x4060 $x88898 $x96191 $x98798 $x102874 $x102882 $x103560) (or $x34437 $x95501 $x96191 $x98349 $x100746 $x102245) (or $x647 $x96191 $x100326 $x103035) (or $x647 $x95835 $x96191 $x103035) (or $x96191 $x97836 $x100326) (or $x4060 $x88898 $x98349 $x98621 $x102882 $x104188 $x106826) (or $x88898 $x96191 $x97072 $x98349) (or $x88898 $x98349 $x98621 $x99530 $x100154 $x104188 $x106826) (or $x1956 $x88898 $x94506 $x96191 $x99530 $x100154) (or $x671 $x96191 $x97858 $x97949 $x99530 $x100154) (or $x647 $x96191 $x97357 $x103035) (or $x2302 $x96191 $x99969 $x105531) (or $x2302 $x3020 $x96191 $x99677 $x103039) (or $x2302 $x96191 $x98062 $x103039) (or $x661 $x671 $x2386 $x96191 $x98506 $x99530) (or $x671 $x96191 $x97949 $x98506 $x99530 $x100154) (or $x671 $x25109 $x96191 $x97949 $x99530 $x100154 $x105339) (or $x671 $x2174 $x88898 $x96191 $x96977 $x99530 $x103560) (or $x2386 $x3020 $x96191 $x98506 $x104127) (or $x671 $x2174 $x2386 $x96191 $x99530 $x102874 $x103560) (or $x671 $x2174 $x2386 $x96191 $x97858 $x99530) (or $x19645 $x96191 $x99105) (or $x647 (not (<= (+ ?x1510 ?x1522 ?x1523 ?x886) 0.0)) $x96191 $x101141) (or $x18402 $x96191 $x99969 $x103581) (or $x3020 $x18402 $x96191 $x103442 $x103581) (or $x671 $x96191 $x96977 $x97949 $x99530 $x100154 $x103908) (or $x3079 $x4060 $x88898 $x96191 $x96977 $x98798 $x102882 $x103908) (or $x661 $x671 $x88898 $x96191 $x96977 $x99530 $x103908) (or $x661 $x671 $x88898 $x94506 $x96191 $x99530) (or $x18402 $x96191 $x99969 $x105531) (or $x3020 $x18402 $x96191 $x105531 $x105569) $x223778 $x227322 (or $x647 $x96191 $x96977 $x101601 $x103035) $x219016 (<= (+ ?x1004 S_2) 0.0) (<= (+ ?x1507 S_0) 0.0) (<= (+ L_0 S_2 ?x878) 0.0) (<= (+ ?x947 L_0 S_0) 0.0) (<= (+ S_3 L_0 ?x886) 0.0) (<= (+ ?x869 S_1 L_0) 0.0) (<= (+ ?x1586 S_1) 0.0))))))))))))))))))))))))))))))))))))))))))))))))))))))))))))))))))))))))))))))))))))))))))))))))))))))))))))))))))))))))))))))))))))))))))))))))))))))))))))))))))))))))))))
(check-sat)
